%%%mzn-stat: initTime=0.04543076
%%%mzn-stat: objective=133
%%%mzn-stat: nodes=583071
%%%mzn-stat: restarts=0
%%%mzn-stat: peakDepth=1101
%%%mzn-stat: solveTime=1675.176091759
%%%mzn-stat: variables=3286
%%%mzn-stat: propagators=2848
%%%mzn-stat: failures=575072
%%%mzn-stat: propagations=46196515
%%%mzn-stat: nogoods=575072
%%%mzn-stat: AverageConflictSize=139.36073048244393
%%%mzn-stat: NumUnitNogoodsLearned=132
%%%mzn-stat: AverageLearnedNogoodLength=166.96617467030217
%%%mzn-stat: AverageBacktrackAmount=0
%%%mzn-stat: AverageLbd=76.22308684825552
%%%mzn-stat-end
maxleg = 133;
succ = array1d(1..150,[45, 94, 133, 96, 71, 149, 47, 113, 88, 50, 97, 53, 73, 115, 36, 7, 139, 70, 6, 150, 101, 35, 44, 126, 64, 54, 52, 95, 84, 32, 30, 74, 106, 104, 118, 43, 10, 129, 49, 117, 148, 40, 18, 11, 123, 60, 136, 140, 22, 51, 81, 33, 56, 135, 144, 58, 15, 59, 28, 24, 87, 83, 8, 42, 38, 61, 112, 141, 91, 128, 19, 9, 66, 107, 2, 27, 143, 85, 46, 39, 75, 122, 145, 65, 116, 130, 114, 110, 137, 79, 1, 62, 76, 93, 86, 142, 69, 89, 100, 121, 92, 82, 120, 109, 31, 103, 26, 4, 98, 3, 16, 77, 99, 25, 37, 119, 23, 41, 147, 124, 105, 125, 138, 5, 72, 67, 14, 17, 108, 80, 90, 134, 13, 21, 132, 102, 63, 34, 78, 131, 12, 55, 57, 127, 48, 68, 146, 20, 111, 29]);
% time elapsed: 1681.08 s
----------
==========
% time elapsed: 1681.08 s
%%%mzn-stat: initTime=0.04543076
%%%mzn-stat: objective=133
%%%mzn-stat: nodes=583071
%%%mzn-stat: restarts=0
%%%mzn-stat: peakDepth=1101
%%%mzn-stat: solveTime=1675.17610504
%%%mzn-stat: variables=3286
%%%mzn-stat: propagators=2848
%%%mzn-stat: failures=575072
%%%mzn-stat: propagations=46196515
%%%mzn-stat: nogoods=575072
%%%mzn-stat: AverageConflictSize=139.36073048244393
%%%mzn-stat: NumUnitNogoodsLearned=132
%%%mzn-stat: AverageLearnedNogoodLength=166.96617467030217
%%%mzn-stat: AverageBacktrackAmount=0
%%%mzn-stat: AverageLbd=76.22308684825552
%%%mzn-stat-end
